# Solution for model JobShopModel
# Objective value = 11
y[0,0,3] 0
y[0,0,4] 1
y[0,1,0] 0
y[0,1,2] 1
y[0,2,3] 1
y[0,2,4] 0
y[1,0,2] 0
y[1,0,3] 1
y[1,1,2] 1
y[1,1,3] 0
y[1,2,1] 0
y[1,2,4] 1
y[2,0,1] 1
y[2,0,4] 0
y[2,1,1] 1
y[2,1,2] 0
y[2,2,0] 1
y[2,2,2] 0
x[0,0,0,0] 0
x[0,0,0,1] 0
x[0,0,0,2] 1
x[0,0,1,0] 0
x[0,0,1,1] 0
x[0,0,1,2] 1
x[0,0,2,0] 0
x[0,0,2,1] 0
x[0,0,2,2] 0
x[0,1,0,0] 0
x[0,1,0,1] 0
x[0,1,0,2] 0
x[0,1,1,0] 0
x[0,1,1,1] 1
x[0,1,1,2] 0
x[0,1,2,0] 0
x[0,1,2,1] 0
x[0,1,2,2] 1
x[0,2,0,0] 1
x[0,2,0,1] 0
x[0,2,0,2] 0
x[0,2,1,0] 0
x[0,2,1,1] 0
x[0,2,1,2] 0
x[0,2,2,0] 0
x[0,2,2,1] 0
x[0,2,2,2] 0
x[1,0,0,0] 0
x[1,0,0,1] 0
x[1,0,0,2] 0
x[1,0,1,0] 0
x[1,0,1,1] 1
x[1,0,1,2] 0
x[1,0,2,0] 0
x[1,0,2,1] 0
x[1,0,2,2] 0
x[1,1,0,0] 0
x[1,1,0,1] 0
x[1,1,0,2] 0
x[1,1,1,0] 0
x[1,1,1,1] 0
x[1,1,1,2] 0
x[1,1,2,0] 0
x[1,1,2,1] 0
x[1,1,2,2] 0
x[1,2,0,0] 0
x[1,2,0,1] 0
x[1,2,0,2] 0
x[1,2,1,0] 0
x[1,2,1,1] 0
x[1,2,1,2] 0
x[1,2,2,0] 1
x[1,2,2,1] 1
x[1,2,2,2] 0
x[2,0,0,0] 0
x[2,0,0,1] 0
x[2,0,0,2] 0
x[2,0,1,0] 0
x[2,0,1,1] 0
x[2,0,1,2] 0
x[2,0,2,0] 0
x[2,0,2,1] 1
x[2,0,2,2] 0
x[2,1,0,0] 0
x[2,1,0,1] 0
x[2,1,0,2] 0
x[2,1,1,0] 0
x[2,1,1,1] 0
x[2,1,1,2] 0
x[2,1,2,0] 0
x[2,1,2,1] 0
x[2,1,2,2] 0
x[2,2,0,0] 0
x[2,2,0,1] 0
x[2,2,0,2] 0
x[2,2,1,0] 0
x[2,2,1,1] 0
x[2,2,1,2] 0
x[2,2,2,0] 0
x[2,2,2,1] 0
x[2,2,2,2] 0
s[0,0,3] 0
s[0,0,4] 1.4000000000023892e+01
s[0,1,0] 0
s[0,1,2] 1.2000000000025910e+01
s[0,2,3] 1.0000000000198828e+00
s[0,2,4] 0
s[1,0,2] 0
s[1,0,3] 1.4000000000023723e+01
s[1,1,2] 5
s[1,1,3] 0
s[1,2,1] 0
s[1,2,4] 2
s[2,0,1] 9
s[2,0,4] 0
s[2,1,1] 1
s[2,1,2] 0
s[2,2,0] 2
s[2,2,2] 0
Z_FO 11
C118 0
C119 1
C120 0
C121 1
C122 1
C123 0
